language Essence 1.3
$ generated by bacp-gen.pl with seed 960833342
$ edge probability 0.0378
$ course loads in range 2..9
letting n_courses be 158
letting n_periods be 21
letting load_per_period_lb be 8
letting load_per_period_ub be 50
letting courses_per_period_lb be 5
letting courses_per_period_ub be 10
letting course_load be function(
1 --> 8,
2 --> 8,
3 --> 4,
4 --> 2,
5 --> 5,
6 --> 8,
7 --> 7,
8 --> 2,
9 --> 2,
10 --> 6,
11 --> 7,
12 --> 4,
13 --> 6,
14 --> 8,
15 --> 3,
16 --> 6,
17 --> 8,
18 --> 2,
19 --> 2,
20 --> 8,
21 --> 4,
22 --> 3,
23 --> 6,
24 --> 8,
25 --> 3,
26 --> 7,
27 --> 6,
28 --> 8,
29 --> 3,
30 --> 9,
31 --> 8,
32 --> 2,
33 --> 8,
34 --> 3,
35 --> 9,
36 --> 3,
37 --> 6,
38 --> 8,
39 --> 7,
40 --> 8,
41 --> 4,
42 --> 3,
43 --> 5,
44 --> 5,
45 --> 3,
46 --> 7,
47 --> 4,
48 --> 2,
49 --> 5,
50 --> 4,
51 --> 5,
52 --> 4,
53 --> 2,
54 --> 3,
55 --> 7,
56 --> 8,
57 --> 8,
58 --> 7,
59 --> 4,
60 --> 5,
61 --> 8,
62 --> 7,
63 --> 3,
64 --> 7,
65 --> 8,
66 --> 8,
67 --> 2,
68 --> 6,
69 --> 2,
70 --> 8,
71 --> 2,
72 --> 8,
73 --> 3,
74 --> 3,
75 --> 6,
76 --> 8,
77 --> 4,
78 --> 2,
79 --> 5,
80 --> 5,
81 --> 2,
82 --> 4,
83 --> 6,
84 --> 4,
85 --> 9,
86 --> 3,
87 --> 4,
88 --> 7,
89 --> 4,
90 --> 3,
91 --> 7,
92 --> 9,
93 --> 2,
94 --> 6,
95 --> 5,
96 --> 4,
97 --> 3,
98 --> 5,
99 --> 5,
100 --> 9,
101 --> 7,
102 --> 3,
103 --> 6,
104 --> 4,
105 --> 7,
106 --> 5,
107 --> 3,
108 --> 7,
109 --> 5,
110 --> 3,
111 --> 8,
112 --> 3,
113 --> 3,
114 --> 5,
115 --> 2,
116 --> 2,
117 --> 2,
118 --> 4,
119 --> 6,
120 --> 7,
121 --> 2,
122 --> 5,
123 --> 7,
124 --> 3,
125 --> 2,
126 --> 7,
127 --> 5,
128 --> 6,
129 --> 5,
130 --> 3,
131 --> 4,
132 --> 5,
133 --> 5,
134 --> 4,
135 --> 3,
136 --> 2,
137 --> 5,
138 --> 5,
139 --> 4,
140 --> 8,
141 --> 3,
142 --> 6,
143 --> 6,
144 --> 2,
145 --> 2,
146 --> 6,
147 --> 8,
148 --> 9,
149 --> 2,
150 --> 5,
151 --> 8,
152 --> 7,
153 --> 7,
154 --> 9,
155 --> 5,
156 --> 8,
157 --> 6,
158 --> 3
)
letting prerequisite be relation (
(42,45),
(9,46),
(15,47),
(4,48),
(34,49),
(31,50),
(21,51),
(26,52),
(24,53),
(44,54),
(20,55),
(16,56),
(14,57),
(3,58),
(4,59),
(9,60),
(31,61),
(13,62),
(19,63),
(39,64),
(18,65),
(18,66),
(42,67),
(32,68),
(19,69),
(20,70),
(40,71),
(28,72),
(30,73),
(15,74),
(12,75),
(10,76),
(33,77),
(31,78),
(37,79),
(9,80),
(11,81),
(6,82),
(17,83),
(28,84),
(32,85),
(14,86),
(24,87),
(9,88),
(21,89),
(6,90),
(41,91),
(11,92),
(9,93),
(32,94),
(14,95),
(24,96),
(22,97),
(33,98),
(7,99),
(11,100),
(5,101),
(20,102),
(10,103),
(41,104),
(34,105),
(23,106),
(37,107),
(27,108),
(10,109),
(18,110),
(8,111),
(28,112),
(13,113),
(21,114),
(33,115),
(37,116),
(20,117),
(29,118),
(12,119),
(15,120),
(14,121),
(44,122),
(19,123),
(24,124),
(18,125),
(33,126),
(40,127),
(22,128),
(14,129),
(125,130),
(99,131),
(77,132),
(100,133),
(108,134),
(110,135),
(107,136),
(106,137),
(49,138),
(125,139),
(89,140),
(62,141),
(109,142),
(56,143),
(126,144),
(79,145),
(129,146),
(110,147),
(79,148),
(118,149),
(76,150),
(115,151),
(88,152),
(113,153),
(89,154),
(118,155),
(56,156),
(119,157),
(109,158),
(105,133),
(18,88),
(124,158),
(25,109),
(22,49),
(35,82),
(33,76),
(41,45),
(44,121),
(87,148),
(13,126),
(36,99),
(23,83),
(6,106),
(74,133),
(17,54),
(18,73),
(32,50),
(73,158),
(40,111),
(29,120),
(26,125),
(38,66),
(27,104),
(2,61),
(29,48),
(36,65),
(31,63),
(25,111),
(43,77),
(52,151),
(37,55),
(102,133),
(3,101),
(112,147),
(27,121),
(35,53),
(12,126),
(99,152),
(60,134),
(55,137),
(99,142),
(5,56),
(42,82),
(80,141),
(21,62),
(35,101),
(35,125),
(25,122),
(74,148),
(109,141),
(93,152),
(12,74),
(26,45),
(31,128),
(29,53),
(9,120),
(22,102),
(23,127),
(19,86),
(89,156),
(45,142),
(8,51),
(65,153),
(25,82),
(11,54),
(41,66),
(92,152),
(5,83),
(12,48),
(19,106),
(16,122),
(12,94),
(12,117),
(62,147),
(24,79),
(71,136),
(65,138),
(80,151),
(24,82),
(87,149),
(112,156),
(120,153),
(63,131),
(36,89),
(65,132),
(1,79),
(102,145),
(80,144),
(96,140),
(28,115),
(1,128),
(1,129),
(117,134),
(13,46),
(22,54),
(40,60),
(13,85),
(64,138),
(77,137),
(18,67),
(118,150),
(103,132),
(91,154),
(76,156),
(15,76),
(86,153),
(18,100),
(9,63),
(110,150),
(125,143),
(78,141),
(90,158),
(11,69),
(45,146),
(98,135),
(23,129),
(82,130),
(39,72),
(5,93)
)

